70 170795
9 39 50 24 61 35 34 36 10 3 4 64 33 52 55 49 31 11 13 42 70 19 23 67 41 30 29 18 66 56 32 46 7 27 58 16 14 6 26 59 2 17 22 38 43 37 28 63 45 60 57 21 25 12 68 44 47 51 62 53 8 5 20 48 15 54 69 65 1 40 
